c "489492.clq"
p edge 253 3792
e 1 17
e 1 18
e 1 19
e 1 20
e 1 22
e 1 26
e 1 27
e 1 30
e 1 32
e 1 34
e 1 36
e 1 40
e 1 44
e 1 47
e 1 49
e 1 50
e 1 53
e 1 58
e 1 70
e 1 81
e 1 90
e 1 98
e 1 107
e 1 138
e 1 155
e 1 157
e 1 158
e 1 161
e 1 164
e 1 176
e 1 185
e 1 191
e 1 215
e 2 17
e 2 18
e 2 19
e 2 20
e 2 22
e 2 23
e 2 24
e 2 26
e 2 29
e 2 30
e 2 31
e 2 33
e 2 35
e 2 37
e 2 39
e 2 40
e 2 49
e 2 51
e 2 59
e 2 60
e 2 67
e 2 70
e 2 74
e 2 75
e 2 76
e 2 81
e 2 86
e 2 87
e 2 93
e 2 96
e 2 97
e 2 99
e 2 118
e 2 128
e 2 129
e 2 130
e 2 137
e 2 156
e 2 171
e 2 175
e 2 178
e 2 187
e 2 189
e 2 216
e 2 222
e 2 225
e 2 232
e 2 237
e 2 244
e 2 253
e 3 17
e 3 19
e 3 20
e 3 21
e 3 22
e 3 23
e 3 26
e 3 27
e 3 29
e 3 30
e 3 32
e 3 34
e 3 36
e 3 38
e 3 44
e 3 46
e 3 47
e 3 48
e 3 50
e 3 54
e 3 62
e 3 63
e 3 65
e 3 66
e 3 69
e 3 70
e 3 72
e 3 78
e 3 86
e 3 90
e 3 91
e 3 94
e 3 95
e 3 97
e 3 98
e 3 99
e 3 109
e 3 115
e 3 116
e 3 117
e 3 121
e 3 123
e 3 124
e 3 125
e 3 129
e 3 137
e 3 139
e 3 148
e 3 153
e 3 156
e 3 159
e 3 167
e 3 171
e 3 173
e 3 186
e 3 192
e 3 195
e 3 199
e 3 202
e 3 208
e 3 209
e 3 220
e 3 224
e 3 225
e 3 231
e 3 233
e 3 236
e 4 17
e 4 18
e 4 19
e 4 21
e 4 23
e 4 24
e 4 25
e 4 28
e 4 30
e 4 34
e 4 43
e 4 45
e 4 50
e 4 56
e 4 58
e 4 59
e 4 61
e 4 70
e 4 76
e 4 93
e 4 98
e 4 135
e 4 142
e 4 144
e 4 149
e 4 171
e 4 178
e 4 182
e 4 225
e 4 234
e 4 252
e 5 17
e 5 18
e 5 19
e 5 20
e 5 22
e 5 27
e 5 28
e 5 29
e 5 30
e 5 42
e 5 45
e 5 47
e 5 50
e 5 62
e 5 68
e 5 70
e 5 75
e 5 83
e 5 119
e 5 124
e 5 127
e 5 129
e 5 140
e 5 144
e 5 145
e 5 146
e 5 150
e 5 151
e 5 165
e 5 178
e 5 179
e 5 180
e 5 204
e 5 221
e 6 17
e 6 18
e 6 19
e 6 20
e 6 21
e 6 22
e 6 24
e 6 25
e 6 27
e 6 35
e 6 42
e 6 49
e 6 61
e 6 64
e 6 74
e 6 81
e 6 92
e 6 122
e 6 133
e 6 135
e 6 140
e 6 183
e 6 188
e 6 223
e 6 230
e 6 250
e 7 17
e 7 18
e 7 19
e 7 21
e 7 24
e 7 26
e 7 33
e 7 34
e 7 37
e 7 41
e 7 42
e 7 44
e 7 51
e 7 52
e 7 53
e 7 55
e 7 56
e 7 58
e 7 61
e 7 62
e 7 66
e 7 67
e 7 69
e 7 71
e 7 77
e 7 78
e 7 82
e 7 85
e 7 87
e 7 95
e 7 103
e 7 112
e 7 114
e 7 117
e 7 136
e 7 139
e 7 148
e 7 152
e 7 157
e 7 166
e 7 175
e 7 186
e 7 188
e 7 196
e 7 197
e 7 200
e 7 209
e 7 226
e 7 228
e 7 231
e 7 233
e 7 238
e 8 17
e 8 18
e 8 19
e 8 20
e 8 21
e 8 22
e 8 23
e 8 24
e 8 25
e 8 26
e 8 27
e 8 30
e 8 31
e 8 33
e 8 34
e 8 35
e 8 37
e 8 40
e 8 42
e 8 43
e 8 44
e 8 45
e 8 47
e 8 53
e 8 54
e 8 60
e 8 74
e 8 93
e 8 106
e 8 120
e 8 125
e 8 146
e 8 164
e 8 165
e 8 169
e 8 177
e 8 181
e 8 203
e 8 204
e 8 215
e 8 222
e 8 226
e 8 239
e 9 17
e 9 18
e 9 19
e 9 20
e 9 21
e 9 23
e 9 24
e 9 25
e 9 28
e 9 30
e 9 31
e 9 44
e 9 51
e 9 60
e 9 77
e 9 82
e 9 95
e 9 96
e 9 102
e 9 104
e 9 130
e 9 133
e 9 141
e 9 143
e 9 159
e 9 160
e 9 163
e 9 169
e 9 170
e 9 174
e 9 175
e 9 178
e 9 180
e 9 187
e 9 192
e 9 196
e 9 200
e 9 209
e 9 217
e 9 221
e 9 227
e 9 229
e 9 249
e 9 250
e 9 252
e 9 253
e 10 17
e 10 18
e 10 22
e 10 24
e 10 26
e 10 36
e 10 40
e 10 41
e 10 43
e 10 54
e 10 110
e 10 112
e 10 133
e 10 137
e 10 226
e 11 17
e 11 18
e 11 19
e 11 20
e 11 21
e 11 22
e 11 23
e 11 24
e 11 25
e 11 26
e 11 28
e 11 29
e 11 31
e 11 36
e 11 38
e 11 40
e 11 41
e 11 43
e 11 44
e 11 63
e 11 73
e 11 81
e 11 84
e 11 91
e 11 94
e 11 95
e 11 99
e 11 100
e 11 101
e 11 104
e 11 123
e 11 126
e 11 127
e 11 129
e 11 150
e 11 154
e 11 162
e 11 165
e 11 173
e 11 201
e 11 203
e 11 224
e 12 17
e 12 18
e 12 19
e 12 20
e 12 21
e 12 28
e 12 29
e 12 31
e 12 32
e 12 36
e 12 47
e 12 48
e 12 53
e 12 55
e 12 69
e 12 84
e 12 90
e 12 92
e 12 107
e 12 116
e 12 122
e 12 132
e 12 140
e 12 144
e 12 147
e 12 149
e 12 153
e 12 161
e 12 172
e 12 197
e 12 214
e 12 217
e 12 240
e 13 17
e 13 18
e 13 19
e 13 20
e 13 21
e 13 23
e 13 25
e 13 27
e 13 30
e 13 37
e 13 41
e 13 42
e 13 45
e 13 47
e 13 48
e 13 53
e 13 54
e 13 61
e 13 72
e 13 76
e 13 77
e 13 85
e 13 91
e 13 92
e 13 112
e 13 114
e 13 123
e 13 144
e 13 147
e 13 151
e 13 158
e 13 166
e 13 189
e 13 218
e 14 17
e 14 18
e 14 19
e 14 20
e 14 21
e 14 22
e 14 23
e 14 27
e 14 28
e 14 33
e 14 34
e 14 38
e 14 40
e 14 43
e 14 46
e 14 47
e 14 50
e 14 51
e 14 54
e 14 58
e 14 59
e 14 79
e 14 84
e 14 89
e 14 91
e 14 106
e 14 110
e 14 131
e 14 149
e 14 156
e 14 157
e 14 166
e 14 167
e 14 176
e 14 190
e 14 225
e 14 235
e 14 247
e 14 253
e 15 17
e 15 18
e 15 20
e 15 21
e 15 22
e 15 23
e 15 24
e 15 25
e 15 26
e 15 30
e 15 31
e 15 32
e 15 33
e 15 34
e 15 35
e 15 49
e 15 60
e 15 63
e 15 65
e 15 67
e 15 69
e 15 75
e 15 84
e 15 88
e 15 89
e 15 91
e 15 98
e 15 99
e 15 101
e 15 103
e 15 136
e 15 144
e 15 145
e 15 148
e 15 158
e 15 165
e 15 174
e 15 177
e 15 179
e 15 182
e 15 193
e 15 198
e 15 199
e 15 205
e 15 240
e 15 244
e 15 248
e 16 17
e 16 18
e 16 19
e 16 20
e 16 21
e 16 22
e 16 23
e 16 25
e 16 26
e 16 27
e 16 28
e 16 29
e 16 30
e 16 31
e 16 32
e 16 33
e 16 36
e 16 39
e 16 40
e 16 43
e 16 49
e 16 51
e 16 52
e 16 53
e 16 76
e 16 81
e 16 88
e 16 89
e 16 96
e 16 102
e 16 122
e 16 130
e 16 132
e 16 146
e 16 162
e 16 169
e 16 184
e 16 201
e 16 204
e 16 208
e 16 244
e 16 246
e 17 18
e 17 19
e 17 20
e 17 21
e 17 22
e 17 23
e 17 24
e 17 25
e 17 26
e 17 27
e 17 28
e 17 29
e 17 30
e 17 31
e 17 32
e 17 33
e 17 34
e 17 35
e 17 36
e 17 37
e 17 38
e 17 41
e 17 42
e 17 43
e 17 44
e 17 46
e 17 51
e 17 54
e 17 55
e 17 57
e 17 60
e 17 61
e 17 64
e 17 67
e 17 72
e 17 74
e 17 77
e 17 79
e 17 82
e 17 87
e 17 91
e 17 96
e 17 102
e 17 105
e 17 111
e 17 113
e 17 122
e 17 126
e 17 127
e 17 136
e 17 138
e 17 141
e 17 145
e 17 148
e 17 157
e 17 160
e 17 162
e 17 166
e 17 168
e 17 180
e 17 181
e 17 183
e 17 191
e 17 192
e 17 201
e 17 207
e 17 208
e 17 211
e 17 214
e 17 215
e 17 220
e 17 224
e 17 229
e 17 235
e 17 241
e 17 242
e 17 253
e 18 19
e 18 20
e 18 21
e 18 22
e 18 23
e 18 24
e 18 25
e 18 26
e 18 27
e 18 28
e 18 29
e 18 30
e 18 32
e 18 33
e 18 34
e 18 35
e 18 36
e 18 37
e 18 38
e 18 39
e 18 40
e 18 41
e 18 42
e 18 44
e 18 45
e 18 47
e 18 48
e 18 49
e 18 50
e 18 53
e 18 54
e 18 55
e 18 56
e 18 57
e 18 58
e 18 59
e 18 60
e 18 62
e 18 63
e 18 65
e 18 67
e 18 68
e 18 69
e 18 70
e 18 72
e 18 73
e 18 74
e 18 75
e 18 80
e 18 82
e 18 84
e 18 85
e 18 88
e 18 90
e 18 92
e 18 93
e 18 94
e 18 98
e 18 101
e 18 105
e 18 107
e 18 109
e 18 110
e 18 111
e 18 112
e 18 116
e 18 117
e 18 119
e 18 121
e 18 122
e 18 124
e 18 129
e 18 130
e 18 133
e 18 135
e 18 139
e 18 141
e 18 144
e 18 151
e 18 154
e 18 158
e 18 163
e 18 166
e 18 168
e 18 173
e 18 174
e 18 176
e 18 183
e 18 186
e 18 198
e 18 199
e 18 202
e 18 206
e 18 224
e 18 226
e 18 230
e 18 234
e 18 239
e 18 243
e 18 244
e 18 251
e 19 20
e 19 21
e 19 22
e 19 23
e 19 24
e 19 25
e 19 26
e 19 27
e 19 28
e 19 29
e 19 30
e 19 31
e 19 32
e 19 34
e 19 35
e 19 36
e 19 38
e 19 39
e 19 41
e 19 43
e 19 44
e 19 45
e 19 49
e 19 50
e 19 52
e 19 55
e 19 56
e 19 57
e 19 58
e 19 59
e 19 60
e 19 61
e 19 63
e 19 65
e 19 68
e 19 75
e 19 78
e 19 85
e 19 87
e 19 92
e 19 93
e 19 102
e 19 103
e 19 104
e 19 105
e 19 108
e 19 113
e 19 116
e 19 121
e 19 124
e 19 127
e 19 135
e 19 139
e 19 142
e 19 158
e 19 164
e 19 165
e 19 167
e 19 172
e 19 175
e 19 184
e 19 188
e 19 189
e 19 190
e 19 203
e 19 207
e 19 211
e 19 212
e 19 214
e 19 216
e 19 229
e 19 238
e 19 244
e 19 251
e 19 252
e 20 21
e 20 22
e 20 23
e 20 24
e 20 25
e 20 26
e 20 27
e 20 28
e 20 29
e 20 30
e 20 31
e 20 32
e 20 33
e 20 34
e 20 36
e 20 37
e 20 41
e 20 42
e 20 43
e 20 47
e 20 48
e 20 49
e 20 53
e 20 54
e 20 55
e 20 56
e 20 58
e 20 63
e 20 64
e 20 65
e 20 66
e 20 68
e 20 69
e 20 71
e 20 73
e 20 75
e 20 83
e 20 84
e 20 86
e 20 88
e 20 90
e 20 93
e 20 94
e 20 97
e 20 100
e 20 101
e 20 105
e 20 108
e 20 109
e 20 110
e 20 111
e 20 113
e 20 115
e 20 118
e 20 122
e 20 123
e 20 130
e 20 135
e 20 142
e 20 143
e 20 150
e 20 157
e 20 159
e 20 164
e 20 175
e 20 181
e 20 185
e 20 188
e 20 192
e 20 193
e 20 194
e 20 196
e 20 214
e 20 218
e 20 220
e 20 224
e 20 233
e 20 234
e 20 236
e 20 237
e 20 241
e 21 22
e 21 23
e 21 24
e 21 25
e 21 27
e 21 28
e 21 29
e 21 30
e 21 31
e 21 32
e 21 33
e 21 34
e 21 35
e 21 36
e 21 39
e 21 41
e 21 44
e 21 45
e 21 46
e 21 47
e 21 48
e 21 49
e 21 51
e 21 52
e 21 53
e 21 55
e 21 60
e 21 61
e 21 63
e 21 65
e 21 68
e 21 69
e 21 74
e 21 75
e 21 76
e 21 79
e 21 81
e 21 82
e 21 84
e 21 93
e 21 105
e 21 108
e 21 117
e 21 133
e 21 135
e 21 141
e 21 144
e 21 147
e 21 149
e 21 150
e 21 151
e 21 164
e 21 165
e 21 166
e 21 167
e 21 172
e 21 174
e 21 176
e 21 177
e 21 184
e 21 185
e 21 189
e 21 191
e 21 192
e 21 194
e 21 199
e 21 202
e 21 208
e 21 213
e 21 215
e 21 227
e 21 232
e 21 239
e 21 243
e 21 246
e 21 248
e 21 250
e 21 251
e 22 23
e 22 24
e 22 25
e 22 26
e 22 28
e 22 29
e 22 33
e 22 34
e 22 35
e 22 37
e 22 38
e 22 40
e 22 42
e 22 43
e 22 44
e 22 46
e 22 54
e 22 57
e 22 60
e 22 62
e 22 63
e 22 64
e 22 66
e 22 68
e 22 69
e 22 70
e 22 73
e 22 76
e 22 81
e 22 85
e 22 87
e 22 89
e 22 90
e 22 92
e 22 95
e 22 96
e 22 97
e 22 106
e 22 109
e 22 127
e 22 129
e 22 131
e 22 132
e 22 133
e 22 149
e 22 152
e 22 160
e 22 174
e 22 190
e 22 194
e 22 196
e 22 197
e 22 199
e 22 200
e 22 204
e 22 207
e 22 208
e 22 212
e 22 215
e 22 216
e 22 220
e 22 222
e 22 227
e 22 230
e 22 240
e 22 242
e 22 253
e 23 24
e 23 25
e 23 29
e 23 33
e 23 35
e 23 53
e 23 56
e 23 58
e 23 59
e 23 61
e 23 66
e 23 78
e 23 80
e 23 82
e 23 88
e 23 89
e 23 91
e 23 105
e 23 117
e 23 134
e 23 142
e 23 143
e 23 148
e 23 154
e 23 156
e 23 157
e 23 161
e 23 162
e 23 164
e 23 165
e 23 167
e 23 172
e 23 183
e 23 221
e 23 227
e 23 230
e 23 240
e 23 246
e 23 253
e 24 25
e 24 26
e 24 27
e 24 28
e 24 29
e 24 31
e 24 32
e 24 33
e 24 34
e 24 35
e 24 36
e 24 37
e 24 39
e 24 40
e 24 41
e 24 43
e 24 45
e 24 48
e 24 51
e 24 52
e 24 53
e 24 54
e 24 61
e 24 63
e 24 68
e 24 70
e 24 71
e 24 72
e 24 73
e 24 74
e 24 77
e 24 83
e 24 84
e 24 85
e 24 89
e 24 94
e 24 95
e 24 100
e 24 110
e 24 113
e 24 122
e 24 126
e 24 129
e 24 132
e 24 136
e 24 139
e 24 143
e 24 150
e 24 158
e 24 166
e 24 170
e 24 179
e 24 186
e 24 189
e 24 193
e 24 194
e 24 195
e 24 199
e 24 217
e 24 218
e 24 219
e 24 223
e 24 234
e 24 240
e 24 244
e 24 253
e 25 26
e 25 27
e 25 28
e 25 29
e 25 31
e 25 32
e 25 34
e 25 35
e 25 36
e 25 37
e 25 39
e 25 40
e 25 43
e 25 46
e 25 48
e 25 49
e 25 52
e 25 53
e 25 55
e 25 56
e 25 57
e 25 61
e 25 62
e 25 63
e 25 64
e 25 65
e 25 66
e 25 68
e 25 70
e 25 73
e 25 75
e 25 78
e 25 80
e 25 83
e 25 87
e 25 88
e 25 89
e 25 90
e 25 97
e 25 98
e 25 100
e 25 101
e 25 102
e 25 103
e 25 104
e 25 105
e 25 111
e 25 113
e 25 115
e 25 119
e 25 120
e 25 121
e 25 123
e 25 125
e 25 126
e 25 128
e 25 129
e 25 130
e 25 132
e 25 134
e 25 136
e 25 145
e 25 148
e 25 151
e 25 153
e 25 160
e 25 163
e 25 168
e 25 169
e 25 173
e 25 177
e 25 178
e 25 180
e 25 184
e 25 185
e 25 193
e 25 201
e 25 202
e 25 203
e 25 204
e 25 211
e 25 215
e 25 216
e 25 219
e 25 222
e 25 223
e 25 225
e 25 232
e 25 236
e 25 243
e 25 248
e 26 27
e 26 28
e 26 32
e 26 37
e 26 38
e 26 40
e 26 41
e 26 42
e 26 45
e 26 48
e 26 49
e 26 51
e 26 52
e 26 56
e 26 57
e 26 62
e 26 73
e 26 75
e 26 83
e 26 85
e 26 87
e 26 91
e 26 92
e 26 93
e 26 95
e 26 110
e 26 116
e 26 121
e 26 126
e 26 136
e 26 139
e 26 147
e 26 151
e 26 154
e 26 155
e 26 164
e 26 168
e 26 169
e 26 219
e 26 231
e 26 235
e 26 240
e 26 243
e 26 248
e 27 30
e 27 32
e 27 33
e 27 37
e 27 39
e 27 41
e 27 42
e 27 43
e 27 45
e 27 46
e 27 49
e 27 50
e 27 55
e 27 57
e 27 58
e 27 59
e 27 61
e 27 63
e 27 64
e 27 65
e 27 68
e 27 73
e 27 79
e 27 81
e 27 82
e 27 83
e 27 85
e 27 87
e 27 92
e 27 95
e 27 97
e 27 99
e 27 108
e 27 110
e 27 113
e 27 115
e 27 119
e 27 126
e 27 133
e 27 138
e 27 140
e 27 141
e 27 148
e 27 153
e 27 157
e 27 172
e 27 173
e 27 174
e 27 175
e 27 177
e 27 185
e 27 209
e 27 219
e 27 222
e 27 230
e 27 235
e 27 241
e 28 29
e 28 31
e 28 33
e 28 37
e 28 38
e 28 40
e 28 41
e 28 44
e 28 45
e 28 46
e 28 47
e 28 48
e 28 51
e 28 52
e 28 56
e 28 59
e 28 60
e 28 64
e 28 67
e 28 68
e 28 69
e 28 71
e 28 72
e 28 73
e 28 76
e 28 78
e 28 81
e 28 86
e 28 90
e 28 92
e 28 98
e 28 99
e 28 103
e 28 105
e 28 106
e 28 113
e 28 116
e 28 118
e 28 120
e 28 121
e 28 125
e 28 128
e 28 130
e 28 134
e 28 135
e 28 138
e 28 153
e 28 156
e 28 161
e 28 162
e 28 164
e 28 169
e 28 181
e 28 187
e 28 197
e 28 206
e 28 209
e 28 211
e 28 218
e 28 221
e 28 225
e 28 242
e 29 31
e 29 32
e 29 33
e 29 35
e 29 37
e 29 40
e 29 46
e 29 58
e 29 65
e 29 67
e 29 69
e 29 73
e 29 75
e 29 76
e 29 77
e 29 98
e 29 101
e 29 106
e 29 123
e 29 129
e 29 130
e 29 135
e 29 145
e 29 150
e 29 163
e 29 168
e 29 177
e 29 180
e 29 193
e 29 195
e 29 206
e 29 208
e 29 209
e 29 212
e 29 218
e 29 228
e 29 250
e 29 253
e 30 31
e 30 32
e 30 36
e 30 39
e 30 41
e 30 42
e 30 45
e 30 46
e 30 48
e 30 50
e 30 54
e 30 57
e 30 60
e 30 62
e 30 68
e 30 69
e 30 78
e 30 82
e 30 84
e 30 86
e 30 91
e 30 92
e 30 99
e 30 103
e 30 106
e 30 108
e 30 112
e 30 114
e 30 116
e 30 125
e 30 135
e 30 142
e 30 147
e 30 151
e 30 157
e 30 164
e 30 166
e 30 167
e 30 168
e 30 180
e 30 182
e 30 199
e 30 203
e 30 206
e 30 209
e 30 215
e 30 223
e 30 224
e 31 36
e 31 38
e 31 39
e 31 42
e 31 45
e 31 50
e 31 51
e 31 52
e 31 54
e 31 55
e 31 56
e 31 57
e 31 59
e 31 63
e 31 73
e 31 75
e 31 78
e 31 79
e 31 80
e 31 81
e 31 83
e 31 85
e 31 89
e 31 96
e 31 97
e 31 98
e 31 100
e 31 102
e 31 105
e 31 111
e 31 112
e 31 115
e 31 118
e 31 119
e 31 121
e 31 122
e 31 125
e 31 142
e 31 154
e 31 155
e 31 162
e 31 163
e 31 179
e 31 183
e 31 190
e 31 200
e 31 209
e 31 218
e 31 228
e 31 234
e 31 243
e 31 246
e 31 248
e 32 34
e 32 35
e 32 38
e 32 39
e 32 40
e 32 51
e 32 52
e 32 62
e 32 63
e 32 71
e 32 83
e 32 84
e 32 95
e 32 96
e 32 104
e 32 106
e 32 116
e 32 117
e 32 120
e 32 122
e 32 134
e 32 136
e 32 142
e 32 174
e 32 184
e 32 195
e 32 199
e 32 212
e 32 224
e 32 225
e 32 231
e 32 240
e 32 253
e 33 35
e 33 38
e 33 39
e 33 49
e 33 51
e 33 52
e 33 55
e 33 59
e 33 60
e 33 67
e 33 81
e 33 82
e 33 83
e 33 87
e 33 88
e 33 90
e 33 97
e 33 102
e 33 104
e 33 112
e 33 113
e 33 125
e 33 126
e 33 129
e 33 132
e 33 139
e 33 141
e 33 145
e 33 161
e 33 162
e 33 165
e 33 169
e 33 179
e 33 181
e 33 183
e 33 190
e 33 192
e 33 197
e 33 200
e 33 214
e 33 228
e 33 233
e 33 239
e 33 245
e 33 251
e 34 35
e 34 38
e 34 39
e 34 45
e 34 46
e 34 47
e 34 48
e 34 49
e 34 51
e 34 53
e 34 55
e 34 56
e 34 59
e 34 65
e 34 66
e 34 70
e 34 73
e 34 74
e 34 76
e 34 77
e 34 80
e 34 85
e 34 88
e 34 89
e 34 92
e 34 95
e 34 101
e 34 102
e 34 104
e 34 117
e 34 122
e 34 144
e 34 147
e 34 150
e 34 152
e 34 154
e 34 156
e 34 159
e 34 163
e 34 166
e 34 173
e 34 197
e 34 205
e 34 214
e 34 220
e 34 231
e 34 235
e 34 241
e 35 36
e 35 37
e 35 38
e 35 48
e 35 76
e 35 80
e 35 81
e 35 89
e 35 90
e 35 115
e 35 118
e 35 130
e 35 142
e 35 149
e 35 152
e 35 155
e 35 159
e 35 166
e 35 167
e 35 181
e 35 183
e 35 184
e 35 192
e 35 202
e 35 210
e 35 213
e 35 216
e 35 236
e 35 242
e 36 37
e 36 38
e 36 39
e 36 40
e 36 42
e 36 43
e 36 44
e 36 46
e 36 47
e 36 54
e 36 57
e 36 58
e 36 62
e 36 64
e 36 65
e 36 67
e 36 72
e 36 76
e 36 78
e 36 83
e 36 97
e 36 98
e 36 102
e 36 104
e 36 117
e 36 120
e 36 126
e 36 128
e 36 134
e 36 141
e 36 143
e 36 154
e 36 169
e 36 180
e 36 186
e 36 224
e 36 236
e 36 253
e 37 38
e 37 39
e 37 43
e 37 44
e 37 47
e 37 49
e 37 50
e 37 52
e 37 53
e 37 54
e 37 55
e 37 56
e 37 58
e 37 59
e 37 66
e 37 67
e 37 75
e 37 77
e 37 78
e 37 80
e 37 86
e 37 90
e 37 98
e 37 100
e 37 110
e 37 111
e 37 118
e 37 120
e 37 124
e 37 125
e 37 128
e 37 130
e 37 133
e 37 134
e 37 135
e 37 136
e 37 141
e 37 153
e 37 154
e 37 159
e 37 161
e 37 178
e 37 188
e 37 189
e 37 195
e 37 196
e 37 211
e 37 212
e 37 213
e 37 226
e 37 229
e 37 238
e 37 244
e 37 252
e 38 39
e 38 41
e 38 42
e 38 46
e 38 57
e 38 61
e 38 62
e 38 82
e 38 88
e 38 90
e 38 91
e 38 99
e 38 109
e 38 113
e 38 115
e 38 124
e 38 126
e 38 128
e 38 131
e 38 162
e 38 163
e 38 166
e 38 170
e 38 172
e 38 190
e 38 227
e 38 251
e 39 46
e 39 53
e 39 54
e 39 58
e 39 60
e 39 62
e 39 66
e 39 67
e 39 77
e 39 94
e 39 97
e 39 98
e 39 99
e 39 101
e 39 106
e 39 111
e 39 112
e 39 119
e 39 122
e 39 123
e 39 134
e 39 137
e 39 143
e 39 144
e 39 145
e 39 155
e 39 169
e 39 177
e 39 178
e 39 179
e 39 180
e 39 199
e 39 200
e 39 207
e 39 213
e 39 216
e 39 221
e 39 236
e 39 238
e 39 239
e 39 241
e 40 41
e 40 42
e 40 43
e 40 48
e 40 54
e 40 56
e 40 64
e 40 71
e 40 72
e 40 74
e 40 77
e 40 85
e 40 89
e 40 91
e 40 94
e 40 96
e 40 103
e 40 105
e 40 107
e 40 109
e 40 110
e 40 112
e 40 116
e 40 123
e 40 127
e 40 129
e 40 132
e 40 135
e 40 137
e 40 139
e 40 147
e 40 150
e 40 154
e 40 158
e 40 162
e 40 178
e 40 189
e 40 203
e 40 205
e 40 210
e 40 212
e 40 223
e 40 229
e 40 233
e 41 45
e 41 46
e 41 47
e 41 48
e 41 50
e 41 51
e 41 60
e 41 61
e 41 64
e 41 65
e 41 67
e 41 68
e 41 70
e 41 72
e 41 74
e 41 77
e 41 78
e 41 79
e 41 82
e 41 86
e 41 94
e 41 97
e 41 103
e 41 104
e 41 105
e 41 106
e 41 116
e 41 131
e 41 138
e 41 148
e 41 149
e 41 153
e 41 170
e 41 171
e 41 172
e 41 190
e 41 200
e 41 204
e 41 213
e 41 220
e 41 227
e 41 232
e 41 244
e 41 248
e 42 44
e 42 46
e 42 52
e 42 57
e 42 65
e 42 71
e 42 76
e 42 87
e 42 90
e 42 93
e 42 111
e 42 118
e 42 132
e 42 137
e 42 138
e 42 143
e 42 146
e 42 151
e 42 156
e 42 159
e 42 163
e 42 164
e 42 170
e 42 172
e 42 186
e 42 195
e 42 201
e 42 203
e 42 212
e 42 223
e 42 233
e 43 44
e 43 45
e 43 53
e 43 58
e 43 62
e 43 66
e 43 86
e 43 88
e 43 107
e 43 110
e 43 112
e 43 114
e 43 115
e 43 120
e 43 131
e 43 136
e 43 141
e 43 147
e 43 152
e 43 158
e 43 173
e 43 187
e 43 188
e 43 196
e 43 197
e 43 200
e 43 207
e 43 225
e 43 236
e 43 237
e 43 248
e 43 253
e 44 47
e 44 49
e 44 52
e 44 55
e 44 60
e 44 66
e 44 67
e 44 71
e 44 73
e 44 80
e 44 86
e 44 95
e 44 99
e 44 102
e 44 103
e 44 104
e 44 105
e 44 111
e 44 115
e 44 119
e 44 120
e 44 131
e 44 136
e 44 137
e 44 140
e 44 146
e 44 151
e 44 153
e 44 157
e 44 161
e 44 163
e 44 173
e 44 178
e 44 180
e 44 184
e 44 192
e 44 200
e 44 206
e 44 213
e 44 221
e 44 226
e 44 229
e 44 248
e 45 52
e 45 71
e 45 78
e 45 81
e 45 86
e 45 90
e 45 91
e 45 95
e 45 100
e 45 102
e 45 116
e 45 124
e 45 131
e 45 138
e 45 142
e 45 176
e 45 182
e 45 207
e 45 208
e 45 215
e 45 222
e 45 226
e 45 233
e 45 238
e 45 240
e 46 48
e 46 50
e 46 51
e 46 52
e 46 61
e 46 64
e 46 71
e 46 72
e 46 76
e 46 83
e 46 92
e 46 94
e 46 95
e 46 96
e 46 97
e 46 100
e 46 107
e 46 114
e 46 115
e 46 116
e 46 123
e 46 124
e 46 128
e 46 138
e 46 147
e 46 156
e 46 163
e 46 167
e 46 169
e 46 183
e 46 184
e 46 189
e 46 210
e 46 217
e 46 229
e 46 231
e 46 240
e 46 249
e 47 50
e 47 57
e 47 66
e 47 69
e 47 73
e 47 88
e 47 100
e 47 101
e 47 109
e 47 121
e 47 131
e 47 137
e 47 139
e 47 147
e 47 160
e 47 171
e 47 187
e 47 189
e 47 205
e 47 222
e 47 224
e 47 247
e 48 50
e 48 59
e 48 62
e 48 64
e 48 65
e 48 67
e 48 68
e 48 69
e 48 71
e 48 72
e 48 73
e 48 74
e 48 75
e 48 78
e 48 83
e 48 84
e 48 86
e 48 90
e 48 91
e 48 94
e 48 101
e 48 106
e 48 107
e 48 108
e 48 109
e 48 117
e 48 127
e 48 143
e 48 154
e 48 160
e 48 161
e 48 166
e 48 177
e 48 180
e 48 181
e 48 182
e 48 200
e 48 202
e 48 204
e 48 215
e 48 245
e 48 247
e 49 50
e 49 55
e 49 56
e 49 58
e 49 63
e 49 65
e 49 68
e 49 69
e 49 77
e 49 87
e 49 113
e 49 121
e 49 140
e 49 156
e 49 173
e 49 177
e 49 182
e 49 183
e 49 188
e 49 198
e 49 209
e 49 210
e 49 213
e 49 215
e 49 219
e 49 220
e 49 233
e 50 57
e 50 59
e 50 70
e 50 77
e 50 85
e 50 96
e 50 98
e 50 101
e 50 107
e 50 123
e 50 152
e 50 160
e 50 162
e 50 163
e 50 167
e 50 187
e 50 201
e 50 242
e 51 56
e 51 58
e 51 63
e 51 67
e 51 74
e 51 77
e 51 80
e 51 81
e 51 103
e 51 116
e 51 123
e 51 124
e 51 127
e 51 147
e 51 155
e 51 156
e 51 158
e 51 169
e 51 171
e 51 190
e 51 202
e 51 219
e 51 221
e 51 222
e 51 227
e 51 235
e 51 252
e 52 66
e 52 72
e 52 79
e 52 80
e 52 81
e 52 86
e 52 89
e 52 105
e 52 108
e 52 111
e 52 113
e 52 116
e 52 118
e 52 119
e 52 124
e 52 128
e 52 144
e 52 156
e 52 166
e 52 168
e 52 171
e 52 184
e 52 187
e 52 191
e 52 227
e 52 235
e 52 244
e 53 57
e 53 59
e 53 61
e 53 62
e 53 69
e 53 76
e 53 79
e 53 84
e 53 86
e 53 104
e 53 106
e 53 107
e 53 108
e 53 110
e 53 113
e 53 119
e 53 121
e 53 128
e 53 131
e 53 138
e 53 146
e 53 149
e 53 150
e 53 159
e 53 164
e 53 188
e 53 198
e 53 209
e 53 211
e 53 234
e 54 55
e 54 56
e 54 57
e 54 59
e 54 64
e 54 77
e 54 78
e 54 79
e 54 84
e 54 99
e 54 126
e 54 143
e 54 144
e 54 153
e 54 154
e 54 155
e 54 156
e 54 160
e 54 164
e 54 165
e 54 182
e 54 191
e 54 209
e 54 210
e 54 216
e 54 217
e 54 234
e 54 252
e 55 63
e 55 64
e 55 65
e 55 67
e 55 68
e 55 76
e 55 79
e 55 83
e 55 88
e 55 99
e 55 107
e 55 119
e 55 120
e 55 133
e 55 173
e 55 198
e 55 200
e 55 208
e 55 224
e 55 233
e 55 245
e 56 62
e 56 70
e 56 75
e 56 84
e 56 87
e 56 91
e 56 99
e 56 107
e 56 115
e 56 117
e 56 127
e 56 129
e 56 132
e 56 153
e 56 160
e 56 162
e 56 164
e 56 182
e 56 187
e 56 191
e 56 193
e 56 208
e 56 219
e 56 224
e 56 240
e 56 246
e 56 252
e 57 60
e 57 66
e 57 70
e 57 74
e 57 106
e 57 107
e 57 114
e 57 118
e 57 132
e 57 141
e 57 160
e 57 165
e 57 168
e 57 184
e 57 185
e 57 201
e 57 217
e 57 218
e 57 225
e 57 234
e 57 239
e 57 240
e 57 244
e 58 78
e 58 79
e 58 80
e 58 82
e 58 84
e 58 87
e 58 89
e 58 92
e 58 97
e 58 102
e 58 114
e 58 137
e 58 138
e 58 176
e 58 217
e 58 218
e 58 231
e 58 234
e 59 66
e 59 75
e 59 80
e 59 83
e 59 94
e 59 107
e 59 112
e 59 159
e 59 162
e 59 177
e 59 187
e 59 199
e 59 214
e 59 217
e 59 250
e 59 252
e 60 61
e 60 69
e 60 71
e 60 74
e 60 83
e 60 96
e 60 98
e 60 100
e 60 104
e 60 109
e 60 110
e 60 111
e 60 131
e 60 137
e 60 144
e 60 194
e 60 195
e 60 205
e 60 208
e 60 214
e 60 236
e 60 238
e 60 245
e 60 247
e 60 249
e 61 64
e 61 72
e 61 82
e 61 85
e 61 87
e 61 88
e 61 94
e 61 108
e 61 111
e 61 116
e 61 125
e 61 134
e 61 154
e 61 170
e 61 214
e 61 236
e 61 247
e 62 64
e 62 73
e 62 79
e 62 80
e 62 89
e 62 92
e 62 94
e 62 103
e 62 123
e 62 136
e 62 143
e 62 181
e 62 185
e 62 198
e 62 204
e 62 208
e 62 215
e 62 229
e 62 251
e 63 68
e 63 85
e 63 91
e 63 93
e 63 101
e 63 118
e 63 119
e 63 132
e 63 135
e 63 140
e 63 159
e 63 160
e 63 172
e 63 186
e 63 193
e 63 201
e 63 206
e 63 211
e 63 232
e 63 251
e 64 91
e 64 102
e 64 114
e 64 118
e 64 134
e 64 152
e 64 163
e 64 172
e 64 175
e 64 197
e 64 203
e 64 250
e 65 66
e 65 70
e 65 71
e 65 74
e 65 77
e 65 79
e 65 80
e 65 92
e 65 96
e 65 101
e 65 112
e 65 114
e 65 130
e 65 142
e 65 145
e 65 153
e 65 159
e 65 173
e 65 185
e 65 204
e 65 238
e 65 242
e 65 244
e 66 78
e 66 82
e 66 86
e 66 105
e 66 106
e 66 109
e 66 121
e 66 124
e 66 142
e 66 145
e 66 180
e 66 189
e 66 192
e 66 197
e 66 216
e 66 241
e 67 72
e 67 75
e 67 89
e 67 100
e 67 125
e 67 134
e 67 142
e 67 156
e 67 170
e 67 182
e 67 215
e 67 217
e 68 71
e 68 79
e 68 102
e 68 103
e 68 114
e 68 161
e 68 167
e 68 168
e 68 173
e 68 177
e 68 186
e 68 193
e 68 194
e 68 195
e 68 207
e 68 224
e 69 70
e 69 71
e 69 82
e 69 102
e 69 104
e 69 115
e 69 134
e 69 175
e 69 187
e 69 210
e 69 239
e 69 245
e 70 71
e 70 72
e 70 74
e 70 83
e 70 85
e 70 87
e 70 89
e 70 92
e 70 93
e 70 125
e 70 139
e 70 141
e 70 143
e 70 151
e 70 152
e 70 171
e 70 173
e 70 176
e 70 179
e 70 187
e 70 204
e 70 211
e 70 239
e 71 72
e 71 76
e 71 93
e 71 104
e 71 117
e 71 121
e 71 127
e 71 131
e 71 136
e 71 137
e 71 138
e 71 146
e 71 149
e 71 152
e 71 187
e 71 208
e 71 220
e 71 244
e 71 247
e 72 88
e 72 93
e 72 101
e 72 105
e 72 109
e 72 112
e 72 114
e 72 122
e 72 126
e 72 129
e 72 134
e 72 157
e 72 166
e 72 172
e 72 182
e 72 183
e 72 188
e 72 198
e 72 210
e 72 213
e 72 228
e 72 238
e 72 247
e 72 248
e 73 80
e 73 94
e 73 95
e 73 103
e 73 106
e 73 136
e 73 158
e 73 183
e 73 196
e 73 198
e 73 204
e 73 222
e 73 231
e 73 232
e 73 242
e 73 243
e 73 249
e 74 90
e 74 101
e 74 117
e 74 126
e 74 130
e 74 175
e 74 181
e 74 210
e 74 212
e 74 241
e 74 251
e 75 80
e 75 84
e 75 88
e 75 119
e 75 142
e 75 158
e 75 176
e 75 181
e 75 186
e 75 189
e 75 192
e 75 200
e 75 210
e 75 213
e 75 217
e 75 230
e 75 239
e 76 79
e 76 94
e 76 98
e 76 101
e 76 107
e 76 115
e 76 126
e 76 139
e 76 194
e 76 197
e 76 199
e 76 247
e 77 81
e 77 121
e 77 130
e 77 131
e 77 152
e 77 155
e 77 161
e 77 165
e 77 172
e 77 175
e 77 179
e 77 203
e 77 211
e 77 214
e 77 221
e 77 237
e 77 245
e 77 252
e 78 79
e 78 93
e 78 97
e 78 100
e 78 108
e 78 114
e 78 125
e 78 129
e 78 149
e 78 152
e 78 197
e 78 202
e 78 217
e 78 227
e 79 82
e 79 87
e 79 93
e 79 107
e 79 108
e 79 109
e 79 139
e 79 140
e 79 144
e 79 152
e 79 168
e 79 210
e 79 214
e 79 231
e 79 232
e 79 241
e 80 86
e 80 88
e 80 108
e 80 153
e 80 161
e 80 165
e 80 171
e 80 178
e 80 183
e 80 188
e 80 198
e 80 218
e 80 221
e 80 231
e 80 243
e 80 251
e 81 96
e 81 103
e 81 126
e 81 145
e 81 150
e 81 186
e 81 216
e 82 95
e 82 105
e 82 109
e 82 117
e 82 133
e 82 137
e 82 140
e 82 143
e 82 149
e 82 170
e 82 179
e 82 187
e 82 192
e 82 193
e 82 196
e 82 201
e 82 202
e 82 247
e 83 85
e 83 96
e 83 110
e 83 128
e 83 133
e 83 135
e 83 146
e 83 167
e 83 175
e 83 182
e 83 188
e 83 190
e 83 193
e 83 207
e 83 220
e 83 232
e 84 86
e 84 112
e 84 114
e 84 115
e 84 119
e 84 128
e 84 130
e 84 133
e 84 151
e 84 157
e 84 163
e 84 174
e 84 184
e 84 191
e 84 196
e 84 202
e 84 219
e 84 221
e 84 246
e 85 97
e 85 100
e 85 103
e 85 115
e 85 117
e 85 122
e 85 138
e 85 144
e 85 148
e 85 155
e 85 161
e 85 171
e 85 184
e 85 194
e 85 214
e 85 235
e 85 245
e 85 246
e 86 99
e 86 108
e 86 110
e 86 112
e 86 118
e 86 122
e 86 123
e 86 127
e 86 171
e 86 182
e 86 195
e 86 197
e 86 198
e 86 222
e 86 223
e 86 228
e 86 235
e 87 95
e 87 112
e 87 122
e 87 154
e 87 170
e 87 173
e 87 176
e 87 182
e 87 188
e 87 196
e 87 206
e 87 210
e 87 237
e 87 244
e 87 246
e 87 248
e 87 249
e 88 99
e 88 118
e 88 121
e 88 152
e 88 154
e 88 160
e 88 167
e 88 178
e 88 225
e 88 235
e 88 243
e 88 248
e 89 104
e 89 110
e 89 119
e 89 124
e 89 157
e 89 177
e 89 185
e 89 189
e 89 212
e 89 242
e 90 94
e 90 99
e 90 103
e 90 125
e 90 138
e 90 151
e 90 152
e 90 168
e 90 193
e 90 201
e 90 203
e 90 213
e 90 231
e 90 248
e 90 250
e 91 96
e 91 98
e 91 100
e 91 120
e 91 126
e 91 127
e 91 128
e 91 135
e 91 147
e 91 220
e 91 227
e 91 242
e 92 93
e 92 102
e 92 109
e 92 117
e 92 120
e 92 138
e 92 158
e 92 178
e 92 189
e 93 104
e 93 122
e 93 123
e 93 125
e 93 145
e 93 157
e 93 184
e 93 185
e 93 195
e 93 202
e 93 211
e 93 215
e 93 218
e 93 226
e 93 228
e 93 229
e 93 248
e 93 249
e 93 250
e 93 251
e 94 100
e 94 111
e 94 123
e 94 136
e 94 140
e 94 155
e 94 180
e 94 204
e 94 237
e 94 245
e 95 96
e 95 119
e 95 131
e 95 147
e 95 148
e 95 158
e 95 166
e 95 176
e 95 179
e 95 181
e 95 195
e 95 229
e 95 238
e 95 241
e 96 97
e 96 100
e 96 120
e 96 132
e 96 168
e 96 185
e 97 133
e 97 134
e 97 148
e 97 149
e 97 155
e 97 168
e 97 170
e 97 176
e 97 223
e 97 224
e 97 231
e 97 232
e 97 245
e 97 250
e 98 106
e 98 109
e 98 113
e 98 114
e 98 137
e 98 169
e 98 203
e 98 242
e 99 108
e 99 131
e 99 139
e 99 168
e 99 170
e 99 183
e 99 187
e 99 194
e 99 205
e 99 207
e 99 237
e 99 246
e 100 107
e 100 108
e 100 127
e 100 128
e 100 132
e 100 150
e 100 153
e 100 163
e 100 170
e 100 171
e 100 182
e 100 228
e 100 230
e 100 240
e 100 243
e 101 106
e 101 113
e 101 125
e 101 142
e 101 145
e 101 146
e 101 151
e 101 163
e 101 166
e 101 188
e 101 191
e 101 207
e 101 217
e 101 218
e 101 229
e 101 230
e 101 241
e 101 250
e 102 135
e 102 138
e 102 140
e 102 146
e 102 149
e 102 155
e 102 160
e 102 161
e 102 162
e 102 171
e 102 172
e 102 175
e 102 177
e 102 179
e 102 183
e 103 127
e 103 152
e 103 162
e 103 169
e 103 197
e 103 223
e 103 226
e 103 228
e 103 230
e 103 239
e 103 243
e 104 146
e 104 150
e 104 186
e 104 205
e 104 211
e 104 225
e 104 242
e 104 249
e 105 109
e 105 111
e 105 118
e 105 128
e 105 129
e 105 132
e 105 133
e 105 140
e 105 155
e 105 176
e 105 195
e 105 226
e 105 241
e 106 108
e 106 113
e 106 115
e 106 121
e 106 132
e 106 136
e 106 140
e 106 142
e 106 155
e 106 198
e 106 218
e 106 250
e 107 111
e 107 120
e 107 134
e 107 137
e 107 145
e 107 148
e 107 158
e 107 184
e 107 202
e 108 111
e 108 120
e 108 123
e 108 141
e 108 174
e 108 188
e 108 228
e 108 230
e 109 110
e 109 118
e 109 124
e 109 170
e 109 190
e 109 192
e 109 201
e 109 212
e 109 228
e 110 126
e 110 132
e 110 143
e 110 145
e 110 150
e 110 160
e 110 164
e 110 183
e 110 185
e 110 186
e 110 190
e 110 193
e 110 221
e 110 222
e 110 226
e 110 241
e 110 244
e 111 113
e 111 116
e 111 130
e 111 133
e 111 149
e 111 150
e 111 162
e 111 169
e 111 202
e 111 207
e 111 213
e 111 251
e 111 253
e 112 114
e 112 120
e 112 131
e 112 148
e 112 149
e 112 151
e 112 172
e 112 174
e 112 191
e 112 198
e 112 206
e 112 214
e 112 216
e 112 220
e 112 221
e 112 225
e 112 228
e 112 238
e 112 242
e 113 114
e 113 119
e 113 141
e 113 154
e 113 176
e 113 192
e 113 207
e 113 210
e 113 228
e 113 230
e 113 235
e 113 236
e 114 121
e 114 127
e 114 130
e 114 143
e 114 147
e 114 150
e 114 167
e 114 173
e 114 176
e 114 207
e 115 117
e 115 124
e 115 138
e 115 148
e 115 161
e 115 186
e 115 198
e 115 204
e 115 210
e 115 214
e 115 217
e 115 223
e 115 233
e 115 247
e 116 118
e 116 124
e 116 128
e 116 129
e 116 136
e 116 141
e 116 144
e 116 146
e 116 159
e 116 178
e 116 194
e 116 216
e 116 220
e 116 222
e 116 228
e 116 243
e 116 252
e 117 120
e 117 146
e 117 159
e 117 160
e 117 172
e 117 193
e 117 209
e 117 217
e 117 241
e 118 145
e 118 158
e 118 161
e 118 167
e 118 168
e 118 171
e 118 179
e 118 180
e 118 225
e 119 124
e 119 146
e 119 148
e 119 165
e 119 169
e 119 174
e 119 176
e 119 216
e 119 221
e 119 233
e 119 245
e 119 248
e 119 252
e 120 140
e 120 156
e 120 179
e 120 189
e 120 219
e 120 246
e 121 125
e 121 137
e 121 146
e 121 235
e 122 140
e 122 141
e 122 144
e 122 173
e 122 191
e 122 196
e 122 197
e 122 199
e 122 207
e 122 208
e 122 236
e 123 127
e 123 147
e 123 154
e 123 156
e 123 213
e 123 219
e 123 220
e 123 239
e 123 240
e 123 252
e 124 133
e 124 137
e 124 165
e 124 180
e 124 207
e 125 175
e 125 192
e 125 198
e 125 220
e 125 227
e 126 131
e 126 181
e 126 200
e 126 224
e 126 229
e 126 237
e 127 128
e 127 135
e 127 184
e 127 219
e 127 231
e 127 232
e 127 242
e 128 141
e 128 190
e 128 191
e 128 205
e 128 221
e 128 232
e 128 234
e 129 163
e 129 172
e 129 208
e 129 224
e 129 234
e 129 239
e 130 134
e 130 143
e 130 145
e 130 159
e 130 169
e 130 186
e 130 187
e 130 199
e 131 139
e 131 153
e 131 155
e 131 200
e 131 205
e 131 210
e 131 237
e 131 249
e 132 134
e 132 170
e 132 205
e 132 239
e 132 245
e 133 139
e 133 143
e 133 152
e 133 155
e 133 157
e 133 167
e 133 174
e 133 191
e 133 216
e 133 227
e 133 231
e 133 237
e 134 151
e 134 174
e 134 185
e 134 194
e 134 211
e 134 222
e 134 232
e 134 235
e 135 149
e 135 151
e 135 175
e 135 206
e 135 210
e 135 211
e 135 233
e 135 239
e 136 161
e 136 168
e 136 170
e 136 191
e 136 212
e 136 216
e 136 230
e 136 247
e 136 252
e 137 139
e 137 140
e 137 142
e 137 153
e 137 179
e 137 194
e 137 195
e 137 237
e 138 159
e 138 171
e 138 185
e 138 237
e 139 146
e 139 176
e 139 223
e 140 159
e 140 183
e 140 206
e 140 226
e 141 178
e 142 147
e 142 148
e 142 150
e 142 165
e 142 218
e 143 167
e 143 178
e 143 191
e 143 203
e 143 212
e 144 174
e 144 178
e 144 212
e 144 220
e 144 245
e 144 246
e 145 156
e 145 158
e 145 180
e 145 211
e 145 219
e 146 182
e 146 190
e 146 202
e 146 223
e 147 185
e 147 186
e 147 201
e 147 227
e 147 230
e 147 236
e 147 244
e 147 245
e 148 157
e 148 215
e 148 241
e 149 153
e 149 235
e 149 250
e 150 157
e 150 181
e 150 196
e 150 218
e 150 242
e 150 246
e 151 162
e 151 165
e 151 179
e 151 181
e 152 179
e 152 199
e 152 249
e 153 175
e 153 191
e 153 192
e 153 205
e 153 238
e 153 245
e 154 184
e 154 203
e 154 232
e 154 249
e 154 250
e 155 164
e 155 177
e 155 231
e 155 233
e 155 246
e 155 247
e 156 170
e 156 190
e 156 230
e 156 243
e 157 201
e 157 206
e 157 213
e 157 218
e 157 236
e 157 242
e 158 160
e 158 164
e 158 202
e 158 235
e 159 189
e 159 190
e 160 175
e 161 181
e 161 188
e 161 190
e 162 193
e 162 197
e 162 200
e 162 221
e 162 227
e 162 249
e 162 251
e 163 189
e 163 232
e 163 238
e 164 177
e 164 249
e 165 225
e 166 171
e 166 194
e 166 196
e 166 238
e 166 239
e 166 253
e 167 193
e 167 205
e 167 206
e 167 214
e 167 233
e 167 234
e 167 248
e 168 198
e 168 211
e 168 216
e 168 228
e 169 174
e 169 188
e 169 194
e 169 213
e 169 246
e 171 206
e 171 227
e 172 174
e 172 193
e 172 213
e 173 180
e 173 187
e 173 191
e 173 195
e 173 225
e 174 186
e 174 194
e 174 208
e 174 223
e 174 226
e 174 243
e 175 197
e 175 203
e 175 230
e 176 177
e 176 196
e 176 210
e 176 212
e 176 215
e 176 226
e 176 249
e 177 181
e 177 185
e 177 201
e 177 205
e 177 209
e 177 218
e 177 246
e 178 195
e 178 199
e 178 202
e 178 204
e 178 217
e 178 234
e 178 240
e 178 252
e 179 182
e 179 195
e 179 222
e 179 223
e 179 243
e 180 201
e 181 205
e 181 208
e 181 212
e 181 229
e 182 236
e 182 240
e 182 251
e 183 232
e 184 205
e 184 231
e 185 209
e 185 240
e 186 194
e 186 204
e 186 246
e 186 247
e 186 252
e 187 200
e 187 206
e 187 220
e 187 225
e 187 241
e 187 250
e 188 192
e 188 251
e 189 198
e 189 206
e 189 228
e 190 196
e 190 221
e 190 238
e 191 205
e 191 219
e 191 222
e 191 252
e 192 201
e 192 203
e 192 204
e 192 239
e 192 243
e 192 244
e 193 213
e 193 214
e 194 234
e 195 196
e 195 203
e 195 209
e 195 226
e 195 229
e 195 236
e 196 245
e 197 199
e 197 209
e 197 212
e 197 216
e 198 226
e 198 233
e 201 207
e 201 215
e 202 219
e 203 217
e 203 237
e 204 206
e 204 223
e 205 211
e 205 222
e 205 229
e 205 232
e 206 224
e 207 219
e 207 238
e 208 251
e 209 250
e 210 234
e 211 253
e 212 227
e 213 219
e 215 223
e 216 237
e 216 238
e 216 242
e 217 235
e 217 248
e 218 243
e 218 247
e 221 230
e 222 229
e 224 241
e 226 249
e 228 234
e 228 237
e 230 236
e 230 247
e 230 253
e 232 233
e 235 237
e 237 251
e 238 249
e 241 245
e 244 247
e 245 249
e 245 250
e 248 253
